%%% static parameters %%%
timespan = 1;
Fact = [2];
Distr1 = [5];
Distr2 = [10];
Clients_N = [100];
Demand_W = [15];
Lt0 = [4];
Lt1 = [4];
SS_ = [0.85];
DS_D = [8];
K = [200];
MA = [500];
%%% dynamic parameters %%%
lost_ratio_sales_ret_th = 0.8180389953542208;
lost_ratio_sales_ret_w = 56;
lost_ratio_sales_dis_th = 0.9143747761024202;
lost_ratio_sales_dis_w = 88;
lost_ratio_sales_fac_th = 0.5935167346083958;
lost_ratio_sales_fac_w = 44;
stock_customer_MA_mean_relative_th = 0.39548388226911213;
stock_customer_MA_mean_relative_w = 54;
stock_distributor_MA_mean_relative_th = 0.20756892950870598;
stock_distributor_MA_mean_relative_w = 72;
stock_retailer_MA_mean_relative_th = 0.37141847870472744;
stock_retailer_MA_mean_relative_w = 96;
stock_factory_MA_mean_relative_th = 0.6397515988636637;
stock_factory_MA_mean_relative_w = 60;
